certificates/rado_a15_c200_N46.cnf
c Rad2 upper bound instance: x1 + 15*x2 - x3 = 200, interval [1,46]
p cnf 46 282
1 11 14 0
-1 -11 -14 0
1 15 26 0
-1 -15 -26 0
1 16 41 0
-1 -16 -41 0
2 12 14 0
-2 -12 -14 0
2 15 27 0
-2 -15 -27 0
2 16 42 0
-2 -16 -42 0
3 13 14 0
-3 -13 -14 0
3 15 28 0
-3 -15 -28 0
3 16 43 0
-3 -16 -43 0
4 14 0
-4 -14 0
4 15 29 0
-4 -15 -29 0
4 16 44 0
-4 -16 -44 0
5 14 15 0
-5 -14 -15 0
5 15 30 0
-5 -15 -30 0
5 16 45 0
-5 -16 -45 0
1 6 13 0
-1 -6 -13 0
6 14 16 0
-6 -14 -16 0
6 15 31 0
-6 -15 -31 0
6 16 46 0
-6 -16 -46 0
2 7 13 0
-2 -7 -13 0
7 14 17 0
-7 -14 -17 0
7 15 32 0
-7 -15 -32 0
3 8 13 0
-3 -8 -13 0
8 14 18 0
-8 -14 -18 0
8 15 33 0
-8 -15 -33 0
4 9 13 0
-4 -9 -13 0
9 14 19 0
-9 -14 -19 0
9 15 34 0
-9 -15 -34 0
5 10 13 0
-5 -10 -13 0
10 14 20 0
-10 -14 -20 0
10 15 35 0
-10 -15 -35 0
6 11 13 0
-6 -11 -13 0
11 14 21 0
-11 -14 -21 0
11 15 36 0
-11 -15 -36 0
7 12 13 0
-7 -12 -13 0
12 14 22 0
-12 -14 -22 0
12 15 37 0
-12 -15 -37 0
8 13 0
-8 -13 0
13 14 23 0
-13 -14 -23 0
13 15 38 0
-13 -15 -38 0
9 13 14 0
-9 -13 -14 0
14 24 0
-14 -24 0
14 15 39 0
-14 -15 -39 0
10 13 15 0
-10 -13 -15 0
14 15 25 0
-14 -15 -25 0
15 40 0
-15 -40 0
11 13 16 0
-11 -13 -16 0
14 16 26 0
-14 -16 -26 0
15 16 41 0
-15 -16 -41 0
12 13 17 0
-12 -13 -17 0
14 17 27 0
-14 -17 -27 0
15 17 42 0
-15 -17 -42 0
13 18 0
-13 -18 0
14 18 28 0
-14 -18 -28 0
15 18 43 0
-15 -18 -43 0
13 14 19 0
-13 -14 -19 0
14 19 29 0
-14 -19 -29 0
15 19 44 0
-15 -19 -44 0
13 15 20 0
-13 -15 -20 0
14 20 30 0
-14 -20 -30 0
15 20 45 0
-15 -20 -45 0
1 12 21 0
-1 -12 -21 0
13 16 21 0
-13 -16 -21 0
14 21 31 0
-14 -21 -31 0
15 21 46 0
-15 -21 -46 0
2 12 22 0
-2 -12 -22 0
13 17 22 0
-13 -17 -22 0
14 22 32 0
-14 -22 -32 0
3 12 23 0
-3 -12 -23 0
13 18 23 0
-13 -18 -23 0
14 23 33 0
-14 -23 -33 0
4 12 24 0
-4 -12 -24 0
13 19 24 0
-13 -19 -24 0
14 24 34 0
-14 -24 -34 0
5 12 25 0
-5 -12 -25 0
13 20 25 0
-13 -20 -25 0
14 25 35 0
-14 -25 -35 0
6 12 26 0
-6 -12 -26 0
13 21 26 0
-13 -21 -26 0
14 26 36 0
-14 -26 -36 0
7 12 27 0
-7 -12 -27 0
13 22 27 0
-13 -22 -27 0
14 27 37 0
-14 -27 -37 0
8 12 28 0
-8 -12 -28 0
13 23 28 0
-13 -23 -28 0
14 28 38 0
-14 -28 -38 0
9 12 29 0
-9 -12 -29 0
13 24 29 0
-13 -24 -29 0
14 29 39 0
-14 -29 -39 0
10 12 30 0
-10 -12 -30 0
13 25 30 0
-13 -25 -30 0
14 30 40 0
-14 -30 -40 0
11 12 31 0
-11 -12 -31 0
13 26 31 0
-13 -26 -31 0
14 31 41 0
-14 -31 -41 0
12 32 0
-12 -32 0
13 27 32 0
-13 -27 -32 0
14 32 42 0
-14 -32 -42 0
12 13 33 0
-12 -13 -33 0
13 28 33 0
-13 -28 -33 0
14 33 43 0
-14 -33 -43 0
12 14 34 0
-12 -14 -34 0
13 29 34 0
-13 -29 -34 0
14 34 44 0
-14 -34 -44 0
12 15 35 0
-12 -15 -35 0
13 30 35 0
-13 -30 -35 0
14 35 45 0
-14 -35 -45 0
1 11 36 0
-1 -11 -36 0
12 16 36 0
-12 -16 -36 0
13 31 36 0
-13 -31 -36 0
14 36 46 0
-14 -36 -46 0
2 11 37 0
-2 -11 -37 0
12 17 37 0
-12 -17 -37 0
13 32 37 0
-13 -32 -37 0
3 11 38 0
-3 -11 -38 0
12 18 38 0
-12 -18 -38 0
13 33 38 0
-13 -33 -38 0
4 11 39 0
-4 -11 -39 0
12 19 39 0
-12 -19 -39 0
13 34 39 0
-13 -34 -39 0
5 11 40 0
-5 -11 -40 0
12 20 40 0
-12 -20 -40 0
13 35 40 0
-13 -35 -40 0
6 11 41 0
-6 -11 -41 0
12 21 41 0
-12 -21 -41 0
13 36 41 0
-13 -36 -41 0
7 11 42 0
-7 -11 -42 0
12 22 42 0
-12 -22 -42 0
13 37 42 0
-13 -37 -42 0
8 11 43 0
-8 -11 -43 0
12 23 43 0
-12 -23 -43 0
13 38 43 0
-13 -38 -43 0
9 11 44 0
-9 -11 -44 0
12 24 44 0
-12 -24 -44 0
13 39 44 0
-13 -39 -44 0
10 11 45 0
-10 -11 -45 0
12 25 45 0
-12 -25 -45 0
13 40 45 0
-13 -40 -45 0
11 46 0
-11 -46 0
12 26 46 0
-12 -26 -46 0
13 41 46 0
-13 -41 -46 0
