certificates/rado_a15_c200_N46.drat
13 -46 0
40 -46 0
-46 0
11 0
-13 0
8 0
18 0
41 0
-43 0
-14 0
-6 0
38 0
4 0
24 0
3 0
36 0
33 0
23 0
9 0
19 0
1 0
16 0
0
